c --- [ banner ] -------------------------------------------------------------
c 
c CaDiCaL Radically Simplified CDCL SAT Solver
c Copyright (c) 2016-2021 A. Biere, M. Fleury, N. Froleyks
c 
c Version 1.5.2 9c38a080b32c28d805e8e6ca21849856b0cda605
c g++ (Ubuntu 7.5.0-3ubuntu1~18.04) 7.5.0 -Wall -Wextra -O3 -DNDEBUG
c Wed Feb 16 23:15:36 EST 2022 Linux fac-vanhoeve01 5.4.0-99-generic x86_64
c 
c --- [ limit ] --------------------------------------------------------------
c 
c setting time limit to 600 seconds real time (due to '-t 600')
c setting conflict limit to 1000000000 conflicts (due to '1000000000')
c 
c --- [ parsing input ] ------------------------------------------------------
c 
c reading DIMACS file from 'ddfwcnfs/qg.order100.col_100.cnf'
c opening file to read 'ddfwcnfs/qg.order100.col_100.cnf'
c found 'p cnf 1000000 97534900' header
c parsed 97534900 clauses in 55.58 seconds process time
c closing file 'ddfwcnfs/qg.order100.col_100.cnf'
c after reading 1744410611 bytes 1663.6 MB
c 
c --- [ options ] ------------------------------------------------------------
c 
c all options are set to their default value
c 
c --- [ solving ] ------------------------------------------------------------
c 
c time measured in process time since initialization
c 
c  seconds    reductions  redundant   irredundant
c          MB     restarts       trail         variables
c            level   conflicts       glue            remaining
c 
c * 55.58 7773  0 0   0    0    0  0% 0 97524900 990000 99%
c { 55.70 7777  0 0   0    0    0  0% 0 97524900 990000 99%
c - 69.66 7777 99 1   0  300  135  3% 98 97524900 990000 99%
c } 70.88 7777 101 1   0 1002  588  3% 98 97524900 990000 99%
c [ 70.88 7777  0 1   0 1002  588  0% 0 97524900 990000 99%
c O 70.91 7777 97 1   0 1003  589  3% 97 97524900 990000 99%
c - 116.58 10014 105 2   1 2694 1614  3% 100 97524900 990000 99%
c ] 116.81 10014 105 2   1 3002 1838  3% 100 97524900 990000 99%
c { 116.81 10014 101 2   1 3002 1838  3% 98 97524900 990000 99%
c F 116.83 10014 101 2   1 3004 1840  3% 98 97524900 990000 99%
c # 193.24 9968 102 2   2 6007 3839  3% 99 97524900 990000 99%
c - 236.86 9968 108 3   2 6285 2927  3% 99 97524900 990000 99%
c } 237.07 9968 119 3   2 7002 3516  3% 99 97524900 990000 99%
c [ 237.07 9968 105 3   2 7002 3516  3% 100 97524900 990000 99%
c I 238.09 9968 114 3   4 10008 5740  3% 101 97524900 990000 99%
c - 282.24 9970 3041 4   5 11073 4456  7% 107 97524900 990000 99%
c s 319.01 9970 4983 4   6 13249 5974 12% 117 97524900 990000 99%
c e 442.63 9970 4983 4   6 13249 3567 12% 117 96059700 980100 98%
c s 445.04 9970 4983 4   6 13249 3544 12% 117 96059700 980100 98%
c ^ 466.30 9970 4983 4   6 13249 3544 12% 117 96059700 980100 98%
c 
c  seconds       reductions   redundant     irredundant
c           MB       restarts        trail           variables
c              level     conflicts        glue             remaining
c 
c ] 467.80 9970 4842 4   7 15004 5024 14% 134 96059700 980100 98%
c { 467.80 9970 119 4   7 15004 5024  3% 99 96059700 980100 98%
c B 546.68 9970 156 4   7 15010 5030  3% 99 96059700 980100 98%
c - 582.65 9926 705 5  31 17057 5018  3% 99 96059700 980100 98%
c } 611.10 9926 481 5  31 21010 7651  3% 99 96059700 980100 98%
c ? 611.10 9926 481 5  31 21010 7651  3% 99 96059700 980100 98%
c 
c --- [ result ] -------------------------------------------------------------
c 
c UNKNOWN
c 
c --- [ run-time profiling ] -------------------------------------------------
c 
c process time taken by individual solving procedures
c (percentage relative to process time for solving)
c 
c       293.06   52.76% simplify
c       262.45   47.24% search
c       138.14   24.87% stable
c        97.43   17.54% unstable
c        70.19   12.63% ternary
c        66.39   11.95% vivify
c        55.58   10.01% parse
c        36.73    6.61% subsume
c        32.97    5.94% elim
c        26.77    4.82% walk
c         5.99    1.08% probe
c         0.12    0.02% lucky
c   =================================
c       555.52   90.90% solve
c 
c last line shows process time for solving
c (percentage relative to total process time)
c 
c --- [ statistics ] ---------------------------------------------------------
c 
c chronological:              4701        22.38 %  of conflicts
c conflicts:                 21010        37.82    per second
c decisions:                748843      1348.01    per second
c eliminated:                 9900         0.99 %  of all variables
c fixed:                     10000         1.00 %  of all variables
c learned:                   20852        99.25 %  per conflict
c learned_lits:            6635174       100.00 %  learned literals
c minimized:                     0         0.00 %  learned literals
c shrunken:                4084747        61.56 %  learned literals
c minishrunken:              21886         0.33 %  learned literals
c propagations:           20141914         0.04 M  per second
c reduced:                    4659        22.18 %  per conflict
c rephased:                      6      3501.67    interval
c restarts:                     31       677.74    interval
c stabilizing:                   2        47.61 %  of conflicts
c subsumed:                   6135         0.00 %  of all clauses
c strengthened:                 47         0.00 %  of all clauses
c walked:                        1     21010.00    interval
c weakened:                1465200         2.00    average size
c 
c seconds are measured in process time for solving
c 
c --- [ resources ] ----------------------------------------------------------
c 
c total process time since initialization:       611.10    seconds
c total real time since initialization:          611.16    seconds
c maximum resident set size of process:        12950.84    MB
c 
c --- [ shutting down ] ------------------------------------------------------
c 
c exit 0
